70
125
87	2
86	2
85	4
84	4
83	2
82	4
81	1
80	6
79	2
78	2
77	2
76	2
75	1
74	3
73	2
72	7
70	3
69	7
67	3
66	2
65	4
64	3
63	2
61	2
60	2
58	2
57	3
56	3
55	4
54	1
53	2
52	3
51	3
50	4
49	4
48	1
47	1
46	4
45	6
43	1
42	3
41	2
40	2
39	1
38	5
37	8
36	2
35	3
34	6
33	2
32	1
31	3
30	6
29	3
28	2
27	1
26	3
25	1
24	2
23	2
22	2
21	1
20	3
19	3
17	3
16	3
15	3
14	1
13	5
12	2
